Water Network: 11
Results smooth approximation 1 of Hazen--Williams headloss constraint

*******************************************************************************
wdnmodel.mod

-------------------------------- Solving with gurobi --------------------------
Gurobi 12.0.1: Set parameter LogToConsole to value 1
  tech:outlev = 1
Set parameter Presolve to value 1
  pre:solve = 1
Set parameter TimeLimit to value 600
  lim:time = 600
  alg:start = 0
Set parameter Method to value 1
  alg:method = 1
Set parameter MIPGapAbs to value 1e-06
  mip:gapabs = 1e-06
Set parameter MIPGap to value 1e-09
  mip:gap = 1e-09
Set parameter BarConvTol to value 1e-09
  bar:convtol = 1e-09
  sol:chk:feastol = 1e-05
  sol:chk:feastolrel = 1e-09
Set parameter NumericFocus to value 1
  alg:numericfocus = 1
  tech:optionfile = gurobiOpt.prm

AMPL MP initial flat model has 534 variables (0 integer, 0 binary);
Objectives: 1 linear; 
Constraints:  58 linear; 102 quadratic;
Algebraic expressions:  34 powconstexp;

AMPL MP final model has 670 variables (0 integer, 0 binary);
Objectives: 1 linear; 
Constraints:  92 linear; 102 quadratic;
Algebraic expressions:  34 powconstexp;


Set parameter InfUnbdInfo to value 1
Gurobi Optimizer version 12.0.1 build v12.0.1rc0 (linux64 - "Debian GNU/Linux 12 (bookworm)")

CPU model: INTEL(R) XEON(R) GOLD 6530, instruction set [SSE2|AVX|AVX2|AVX512]
Thread count: 32 physical cores, 64 logical processors, using up to 32 threads

Non-default parameters:
TimeLimit  600
MIPGap  1e-09
MIPGapAbs  1e-06
Method  1
BarConvTol  1e-09
InfUnbdInfo  1
NumericFocus  1
Presolve  1

Optimize a model with 92 rows, 670 columns and 642 nonzeros
Model fingerprint: 0xd893c013
Model has 34 general nonlinear constraints (1904 nonlinear terms)
Variable types: 670 continuous, 0 integer (0 binary)
Coefficient statistics:
  Matrix range     [1e+00, 1e+00]
  Objective range  [1e+03, 2e+04]
  Bounds range     [1e-11, 5e+05]
  RHS range        [3e-02, 3e+03]
Presolve model has 34 nlconstr
Added 1054 variables to disaggregate expressions.
Presolve removed 2 rows and 104 columns
Presolve time: 0.02s
Presolved: 2946 rows, 1655 columns, 6843 nonzeros
Presolved model has 544 bilinear constraint(s)
Presolved model has 34 nonlinear constraint(s)

Solving non-convex MINLP

Variable types: 1655 continuous, 0 integer (0 binary)

Root relaxation: objective 3.745842e+07, 958 iterations, 0.16 seconds (0.02 work units)

    Nodes    |    Current Node    |     Objective Bounds      |     Work
 Expl Unexpl |  Obj  Depth IntInf | Incumbent    BestBd   Gap | It/Node Time

     0     0 3.7458e+07    0   95          - 3.7458e+07      -     -    1s
     0     0 3.7458e+07    0   95          - 3.7458e+07      -     -    1s
     0     0 3.7458e+07    0   95          - 3.7458e+07      -     -    1s
     0     0 3.7458e+07    0   95          - 3.7458e+07      -     -    1s
     0     0 3.7458e+07    0   95          - 3.7458e+07      -     -    1s
     0     0 3.7458e+07    0   94          - 3.7458e+07      -     -    1s
     0     0 3.7458e+07    0   93          - 3.7458e+07      -     -    1s
     0     0 3.7458e+07    0   93          - 3.7458e+07      -     -    1s
     0     0 3.7458e+07    0   93          - 3.7458e+07      -     -    1s
     0     0 3.7458e+07    0   93          - 3.7458e+07      -     -    1s
     0     2 3.7458e+07    0   93          - 3.7458e+07      -     -    6s
  1734   838 infeasible   27               - 3.9354e+07      -  13.2   10s
  4479  2248 4.7652e+07   18    0          - 3.9434e+07      -  21.1   15s
  4487  2253 5.3210e+07   27    0          - 3.9434e+07      -  21.1   20s
  4488  2257 3.9434e+07   15  101          - 3.9434e+07      -  21.3   30s
  7616  2864 4.5253e+07   45   78          - 3.9434e+07      -  27.7   35s
 14522  4947 4.3183e+07   53   78          - 3.9434e+07      -  26.7   40s
 20421  6724 4.3188e+07   58   68          - 4.2350e+07      -  23.7   53s
 21436  6897 infeasible   47               - 4.3180e+07      -  23.2   55s
 29312  9114 6.0211e+07   88   76          - 4.3190e+07      -  20.7   60s
 35834 11826 6.0850e+07  127   77          - 4.3194e+07      -  18.5   65s
 44790 17398 6.1359e+07  199   77          - 4.3203e+07      -  17.4   71s
 51019 19961 6.3720e+07  225   92          - 4.3210e+07      -  17.8   76s
 56264 21903 infeasible   90               - 4.3293e+07      -  17.6   80s
 66158 24313 4.3967e+07   77   90          - 4.3913e+07      -  16.5   86s
 72331 24780 4.4818e+07   79   97          - 4.3965e+07      -  15.8   90s
 80856 25600 4.4537e+07  128   96          - 4.3965e+07      -  15.0   96s
 87482 27949 infeasible  113               - 4.3969e+07      -  14.9  101s
 94253 28196 4.4550e+07  140   86          - 4.4246e+07      -  15.1  106s
 101229 29171 4.4562e+07  145   83          - 4.4547e+07      -  15.3  111s
 108171 30108 infeasible   78               - 4.4552e+07      -  15.5  116s
 115252 30781 4.4581e+07  129   86          - 4.4554e+07      -  15.7  120s
 122061 31384 infeasible  136               - 4.4561e+07      -  15.9  125s
 128527 31028 infeasible  146               - 4.4565e+07      -  16.2  131s
 135404 29954 5.7127e+07  146   80          - 4.4574e+07      -  16.1  136s
